NAME : zqloutput/eax-hard-simple-rescaleandround/50-2.tsp
TYPE : TSP
DIMENSION : 50
EDGE_WEIGHT_TYPE : EUC_2D
NODE_COORD_SECTION
1 175499 65695
2 606636 232595
3 318758 791329
4 967636 26463
5 937259 353363
6 718768 890881
7 536272 656935
8 451574 222012
9 752986 716398
10 553679 194000
11 406450 504742
12 790122 497330
13 174994 436456
14 91670 181471
15 150294 253242
16 907891 94773
17 512703 638135
18 272480 589512
19 860266 943606
20 136372 324912
21 38650 439864
22 663665 410589
23 2237 589933
24 400365 968860
25 974636 506116
26 777360 415558
27 387348 775792
28 695878 420072
29 774228 763330
30 148638 173435
31 723051 282601
32 277685 836234
33 958496 88504
34 712112 838473
35 912055 788261
36 209311 707962
37 987823 122561
38 771450 264201
39 9577 882802
40 554917 725377
41 315024 861859
42 587138 763951
43 774373 300766
44 600514 25599
45 902246 664855
46 752939 542780
47 232961 403860
48 777961 662548
49 231210 696429
50 613821 34817
EOF
